networks/zoo_124_1513/zoo_124_1513.txt
Number of groups: 74
Flow 1: {1 56} {56 2} {2 64} 
Flow 41: {2 56} {56 62} {62 124} 
Flow 45: {3 4} 
Flow 60: {5 8} 
Flow 72: {6 8} {8 26} {26 88} 
Flow 94: {7 8} {8 42} {42 16} {16 78} 
Flow 121: {8 6} {6 68} 
Flow 127: {34 13} {13 75} 
Flow 128: {42 15} {15 77} 
Flow 131: {8 18} {18 80} 
Flow 136: {21 23} {23 85} 
Flow 143: {42 30} {30 92} 
Flow 145: {34 32} {32 94} 
Flow 150: {28 37} {37 99} 
Flow 151: {8 28} {28 38} {38 100} 
Flow 152: {28 39} {39 101} 
Flow 154: {42 41} {41 103} 
Flow 156: {43 105} 
Flow 157: {44 106} 
Flow 158: {8 52} {52 45} {45 107} 
Flow 160: {8 48} {48 110} 
Flow 171: {56 59} {59 121} 
Flow 172: {56 60} {60 122} 
Flow 179: {9 34} {34 10} {10 72} 
Flow 200: {10 34} 
Flow 217: {11 8} {8 17} {17 79} 
Flow 264: {12 8} {8 46} {46 108} 
Flow 271: {13 34} 
Flow 290: {14 34} {34 8} 
Flow 323: {15 42} {42 31} {31 93} 
Flow 340: {16 42} {42 104} 
Flow 344: {17 8} {8 7} {7 69} 
Flow 373: {18 8} {8 33} {33 95} 
Flow 402: {19 44} {44 49} {49 111} 
Flow 419: {20 44} {44 43} {43 21} {21 22} {22 84} 
Flow 484: {22 21} {21 83} 
Flow 500: {23 21} {21 43} {43 44} {44 20} {20 82} 
Flow 537: {24 8} {8 36} {36 35} {35 97} 
Flow 564: {25 8} {8 34} {34 29} {29 91} 
Flow 577: {4 54} {54 116} 
Flow 581: {26 8} {8 70} 
Flow 586: {27 42} 
Flow 645: {56 57} {57 119} 
Flow 655: {29 34} {34 96} 
Flow 677: {30 42} 
Flow 709: {31 42} {42 27} {27 89} 
Flow 732: {32 34} 
Flow 746: {33 8} {8 44} {44 19} {19 81} 
Flow 768: {33 56} {56 55} {55 117} 
Flow 818: {52 50} {50 112} 
Flow 836: {35 36} {36 98} 
Flow 845: {8 5} {5 67} 
Flow 848: {34 9} {9 71} 
Flow 850: {36 8} {8 11} {11 73} 
Flow 910: {38 28} {28 40} {40 102} 
Flow 933: {39 28} {28 8} {8 25} {25 87} 
Flow 968: {40 28} {28 90} 
Flow 988: {41 42} {42 8} {8 12} {12 74} 
Flow 1144: {45 52} {52 8} 
Flow 1162: {46 8} 
Flow 1200: {47 8} {8 56} {56 58} {58 120} 
Flow 1212: {48 8} {8 24} {24 86} 
Flow 1232: {49 44} {44 8} 
Flow 1254: {50 52} {52 51} {51 113} 
Flow 1261: {51 52} {52 114} 
Flow 1304: {53 56} {56 33} 
Flow 1309: {54 4} {4 56} {56 1} {1 63} 
Flow 1338: {55 56} {56 4} {4 66} 
Flow 1350: {4 3} {3 65} 
Flow 1428: {58 56} {56 8} 
Flow 1439: {59 56} 
Flow 1467: {60 56} 
Flow 1485: {61 56} {56 118} 
Flow 1512: {62 56} {56 53} {53 115} 
Time taken running everything: 259 seconds
